c colouring generated by benchmark framework
p edge 33 528
v 1 10
v 2 32
v 3 31
v 4 28
v 5 25
v 6 26
v 7 23
v 8 22
v 9 21
v 10 20
v 11 18
v 12 17
v 13 14
v 14 13
v 15 8
v 16 7
v 17 19
v 18 16
v 19 11
v 20 6
v 21 2
v 22 12
v 23 9
v 24 5
v 25 1
v 26 15
v 27 24
v 28 27
v 29 29
v 30 0
v 31 3
v 32 4
v 33 30
